NAME: random17
TYPE: TSP
DIMENSION: 17
EDGE_WEIGHT_TYPE: EXPLICIT
EDGE_WEIGHT_FORMAT: FULL_MATRIX
EDGE_WEIGHT_SECTION
0 545 545 545 31 545 545 27 27 31 3 545 545 545 545 545 545
545 0 545 545 33 545 545 545 545 545 545 545 24 4 545 545 38
545 545 0 17 545 62 23 545 24 545 545 41 545 545 37 545 545
545 545 17 0 545 545 545 545 9 33 545 545 545 545 29 545 545
31 33 545 545 0 545 545 29 545 45 545 545 44 32 545 545 545
545 545 62 545 545 0 82 545 545 545 545 545 545 79 33 545 38
545 545 23 545 545 82 0 545 545 545 545 48 545 545 545 67 545
27 545 545 545 29 545 545 0 545 545 26 545 545 545 545 23 545
27 545 24 9 545 545 545 545 0 32 26 25 545 545 545 545 545
31 545 545 33 45 545 545 545 32 0 545 545 15 545 23 545 22
3 545 545 545 545 545 545 26 26 545 0 25 545 545 545 29 545
545 545 41 545 545 545 48 545 25 545 25 0 545 545 545 20 545
545 24 545 545 44 545 545 545 545 15 545 545 0 545 545 545 16
545 4 545 545 32 79 545 545 545 545 545 545 545 0 545 545 42
545 545 37 29 545 33 545 545 545 23 545 545 545 545 0 545 26
545 545 545 545 545 545 67 23 545 545 29 20 545 545 545 0 545
545 38 545 545 545 38 545 545 545 22 545 545 16 42 26 545 0
EOF
